50		
1	40	50
2	25	85
3	22	75
4	22	85
5	20	80
6	20	85
7	18	75
8	15	75
9	15	80
10	10	35
11	10	40
12	8	40
13	8	45
14	5	35
15	5	45
16	2	40
17	0	40
18	0	45
19	44	5
20	42	10
21	42	15
22	40	5
23	40	15
24	38	5
25	38	15
26	35	5
27	95	30
28	95	35
29	92	30
30	90	35
31	88	30
32	88	35
33	87	30
34	85	25
35	85	35
36	67	85
37	65	85
38	65	82
39	62	80
40	60	80
41	60	85
42	58	75
43	55	80
44	55	85
45	55	82
46	20	82
47	18	80
48	2	45
49	42	5
50	42	12
